17	4	3
9	10	31	12	43	24	47	
0	0	0	0	0	10	1	4	5	10	5	3	2	3	4
7	0	0	0	10	7	9	9	7	10	10	1	8
8	9	0	0	0	8	6	1	5	4	1	3	10	12	17
8	0	7	0	0	7	8	6	5	10	2	3	5	6	15
7	0	0	9	0	7	6	6	4	8	3	3	7	11	17
150	0	0	0	1	5	8	4	8	2	3	2	9	17
175	0	0	0	2	3	8	2	1	5	1	1	17
200	0	0	7	0	1	2	7	2	7	1	2	9	17
175	0	2	0	0	2	3	9	8	8	8	2	17	17
250	0	0	2	0	10	4	3	5	8	10	2	14	16
125	0	0	0	1	8	2	8	1	10	9	3	13	14	17
75	0	0	6	0	4	2	7	5	3	1	2	13	17
3	0	6	0	0	6	3	3	2	5	10	1	17
1	4	0	0	0	2	6	2	10	4	10	1	17
1	0	0	7	0	7	3	3	10	8	10	1	17
5	0	0	0	9	9	5	2	7	6	1	2	17	17
0	0	0	0	0	6	9	2	2	3	5	0
